8	8
0	90	7	53	3	83	4	46	6	87	1	38	2	27	5	69
4	39	6	23	3	92	1	56	2	96	5	4	7	54	0	12
1	27	7	22	5	90	2	69	0	88	6	97	3	44	4	62
7	42	4	55	2	25	5	96	3	51	6	30	0	35	1	84
2	58	1	39	6	63	0	22	3	58	4	43	7	46	5	29
6	48	7	3	3	24	5	13	2	72	0	43	4	63	1	39
7	74	5	29	0	69	1	94	2	51	3	12	4	20	6	32
0	83	6	64	4	80	1	19	5	70	7	61	3	87	2	72
